1073.15,52.77,63.24
973.09,58.19,69.74
1040.57,54.42,65.22
1010.53,56.04,67.16
1048.77,53.99,64.71
885.46,63.95,76.64
1019.57,55.54,66.56
1282.11,44.17,52.93
1029.17,55.02,65.94
1033.33,54.8,65.68
1057.22,53.56,64.19
1100.34,51.46,61.68
1047.46,54.06,64.79
934.89,60.57,72.59
1042.35,54.33,65.11
1093.0,51.81,62.09
1029.73,54.99,65.91
1096.61,51.64,61.89
1059.96,53.42,64.03
1073.42,52.75,63.22
